85
120
96	7
95	8
94	11
93	8
92	8
91	10
90	6
89	6
88	4
87	13
86	10
85	9
84	7
83	8
82	6
81	12
80	11
79	11
78	10
77	10
76	6
75	8
74	9
73	8
72	13
71	9
70	9
69	9
68	8
67	4
66	7
65	12
64	9
63	10
62	7
61	7
60	7
59	10
58	8
57	5
56	7
55	7
54	7
53	10
52	11
51	9
50	11
49	10
48	5
47	10
46	9
45	12
44	9
43	13
42	6
41	7
40	6
39	15
38	14
37	10
36	12
35	12
34	8
33	9
32	7
31	8
30	8
29	9
28	8
27	10
26	5
25	5
24	7
23	13
22	7
21	7
20	13
19	10
18	10
17	11
16	11
15	9
14	7
13	10
12	6
